; benchmark generated from python API
(set-info :status unknown)
(declare-fun p_1_8_1 () Int)
(declare-fun p_1_7_2 () Int)
(declare-fun p_1_3_6 () Int)
(declare-fun p_1_4_5 () Int)
(declare-fun p_2_8_2 () Int)
(declare-fun p_2_1_3 () Int)
(declare-fun p_2_4_7 () Int)
(declare-fun p_2_5_6 () Int)
(declare-fun p_3_8_3 () Int)
(declare-fun p_3_2_4 () Int)
(declare-fun p_3_5_1 () Int)
(declare-fun p_3_6_7 () Int)
(declare-fun p_4_8_4 () Int)
(declare-fun p_4_3_5 () Int)
(declare-fun p_4_6_2 () Int)
(declare-fun p_4_7_1 () Int)
(declare-fun p_5_5_8 () Int)
(declare-fun p_5_4_6 () Int)
(declare-fun p_5_7_3 () Int)
(declare-fun p_5_1_2 () Int)
(declare-fun p_6_6_8 () Int)
(declare-fun p_6_5_7 () Int)
(declare-fun p_6_1_4 () Int)
(declare-fun p_6_2_3 () Int)
(declare-fun p_7_7_8 () Int)
(declare-fun p_7_6_1 () Int)
(declare-fun p_7_2_5 () Int)
(declare-fun p_7_3_4 () Int)
(assert
 (>= p_1_8_1 1))
(assert
 (<= p_1_8_1 4))
(assert
 (>= p_1_7_2 1))
(assert
 (<= p_1_7_2 4))
(assert
 (>= p_1_3_6 1))
(assert
 (<= p_1_3_6 4))
(assert
 (>= p_1_4_5 1))
(assert
 (<= p_1_4_5 4))
(assert
 (>= p_2_8_2 1))
(assert
 (<= p_2_8_2 4))
(assert
 (>= p_2_1_3 1))
(assert
 (<= p_2_1_3 4))
(assert
 (>= p_2_4_7 1))
(assert
 (<= p_2_4_7 4))
(assert
 (>= p_2_5_6 1))
(assert
 (<= p_2_5_6 4))
(assert
 (>= p_3_8_3 1))
(assert
 (<= p_3_8_3 4))
(assert
 (>= p_3_2_4 1))
(assert
 (<= p_3_2_4 4))
(assert
 (>= p_3_5_1 1))
(assert
 (<= p_3_5_1 4))
(assert
 (>= p_3_6_7 1))
(assert
 (<= p_3_6_7 4))
(assert
 (>= p_4_8_4 1))
(assert
 (<= p_4_8_4 4))
(assert
 (>= p_4_3_5 1))
(assert
 (<= p_4_3_5 4))
(assert
 (>= p_4_6_2 1))
(assert
 (<= p_4_6_2 4))
(assert
 (>= p_4_7_1 1))
(assert
 (<= p_4_7_1 4))
(assert
 (>= p_5_5_8 1))
(assert
 (<= p_5_5_8 4))
(assert
 (>= p_5_4_6 1))
(assert
 (<= p_5_4_6 4))
(assert
 (>= p_5_7_3 1))
(assert
 (<= p_5_7_3 4))
(assert
 (>= p_5_1_2 1))
(assert
 (<= p_5_1_2 4))
(assert
 (>= p_6_6_8 1))
(assert
 (<= p_6_6_8 4))
(assert
 (>= p_6_5_7 1))
(assert
 (<= p_6_5_7 4))
(assert
 (>= p_6_1_4 1))
(assert
 (<= p_6_1_4 4))
(assert
 (>= p_6_2_3 1))
(assert
 (<= p_6_2_3 4))
(assert
 (>= p_7_7_8 1))
(assert
 (<= p_7_7_8 4))
(assert
 (>= p_7_6_1 1))
(assert
 (<= p_7_6_1 4))
(assert
 (>= p_7_2_5 1))
(assert
 (<= p_7_2_5 4))
(assert
 (>= p_7_3_4 1))
(assert
 (<= p_7_3_4 4))
(assert
 (= p_1_3_6 1))
(assert
 (= p_1_4_5 2))
(assert
 (= p_1_7_2 3))
(assert
 (= p_1_8_1 4))
(assert
 (let (($x17 (= p_1_4_5 1)))
 (let (($x183 (= p_1_3_6 1)))
 (let (($x14 (= p_1_7_2 1)))
 (let (($x171 (= p_1_8_1 1)))
 ((_ pbeq 1 1 1 1 1) $x171 $x14 $x183 $x17))))))
(assert
 (let (($x180 (= p_1_4_5 2)))
 (let (($x36 (= p_1_3_6 2)))
 (let (($x33 (= p_1_7_2 2)))
 (let (($x30 (= p_1_8_1 2)))
 ((_ pbeq 1 1 1 1 1) $x30 $x33 $x36 $x180))))))
(assert
 (let (($x44 (= p_1_4_5 3)))
 (let (($x43 (= p_1_3_6 3)))
 (let (($x139 (= p_1_7_2 3)))
 (let (($x42 (= p_1_8_1 3)))
 ((_ pbeq 1 1 1 1 1) $x42 $x139 $x43 $x44))))))
(assert
 (let (($x41 (= p_1_4_5 4)))
 (let (($x46 (= p_1_3_6 4)))
 (let (($x38 (= p_1_7_2 4)))
 (let (($x176 (= p_1_8_1 4)))
 ((_ pbeq 1 1 1 1 1) $x176 $x38 $x46 $x41))))))
(assert
 (let (($x48 (= p_2_5_6 1)))
 (let (($x25 (= p_2_4_7 1)))
 (let (($x32 (= p_2_1_3 1)))
 (let (($x47 (= p_2_8_2 1)))
 ((_ pbeq 1 1 1 1 1) $x47 $x32 $x25 $x48))))))
(assert
 (let (($x49 (= p_2_5_6 2)))
 (let (($x6 (= p_2_4_7 2)))
 (let (($x29 (= p_2_1_3 2)))
 (let (($x8 (= p_2_8_2 2)))
 ((_ pbeq 1 1 1 1 1) $x8 $x29 $x6 $x49))))))
(assert
 (let (($x40 (= p_2_5_6 3)))
 (let (($x50 (= p_2_4_7 3)))
 (let (($x27 (= p_2_1_3 3)))
 (let (($x31 (= p_2_8_2 3)))
 ((_ pbeq 1 1 1 1 1) $x31 $x27 $x50 $x40))))))
(assert
 (let (($x1147 (= p_2_5_6 4)))
 (let (($x5 (= p_2_4_7 4)))
 (let (($x7 (= p_2_1_3 4)))
 (let (($x34 (= p_2_8_2 4)))
 ((_ pbeq 1 1 1 1 1) $x34 $x7 $x5 $x1147))))))
(assert
 (let (($x1217 (= p_3_6_7 1)))
 (let (($x1214 (= p_3_5_1 1)))
 (let (($x1216 (= p_3_2_4 1)))
 (let (($x1148 (= p_3_8_3 1)))
 ((_ pbeq 1 1 1 1 1) $x1148 $x1216 $x1214 $x1217))))))
(assert
 (let (($x1354 (= p_3_6_7 2)))
 (let (($x1648 (= p_3_5_1 2)))
 (let (($x1286 (= p_3_2_4 2)))
 (let (($x1283 (= p_3_8_3 2)))
 ((_ pbeq 1 1 1 1 1) $x1283 $x1286 $x1648 $x1354))))))
(assert
 (let (($x1645 (= p_3_6_7 3)))
 (let (($x1646 (= p_3_5_1 3)))
 (let (($x1647 (= p_3_2_4 3)))
 (let (($x1355 (= p_3_8_3 3)))
 ((_ pbeq 1 1 1 1 1) $x1355 $x1647 $x1646 $x1645))))))
(assert
 (let (($x1640 (= p_3_6_7 4)))
 (let (($x1641 (= p_3_5_1 4)))
 (let (($x1642 (= p_3_2_4 4)))
 (let (($x1643 (= p_3_8_3 4)))
 ((_ pbeq 1 1 1 1 1) $x1643 $x1642 $x1641 $x1640))))))
(assert
 (let (($x1636 (= p_4_7_1 1)))
 (let (($x1637 (= p_4_6_2 1)))
 (let (($x1638 (= p_4_3_5 1)))
 (let (($x777 (= p_4_8_4 1)))
 ((_ pbeq 1 1 1 1 1) $x777 $x1638 $x1637 $x1636))))))
(assert
 (let (($x1631 (= p_4_7_1 2)))
 (let (($x1632 (= p_4_6_2 2)))
 (let (($x1633 (= p_4_3_5 2)))
 (let (($x1634 (= p_4_8_4 2)))
 ((_ pbeq 1 1 1 1 1) $x1634 $x1633 $x1632 $x1631))))))
(assert
 (let (($x1110 (= p_4_7_1 3)))
 (let (($x1107 (= p_4_6_2 3)))
 (let (($x747 (= p_4_3_5 3)))
 (let (($x1629 (= p_4_8_4 3)))
 ((_ pbeq 1 1 1 1 1) $x1629 $x747 $x1107 $x1110))))))
(assert
 (let (($x1177 (= p_4_7_1 4)))
 (let (($x1179 (= p_4_6_2 4)))
 (let (($x1176 (= p_4_3_5 4)))
 (let (($x1111 (= p_4_8_4 4)))
 ((_ pbeq 1 1 1 1 1) $x1111 $x1176 $x1179 $x1177))))))
(assert
 (let (($x1249 (= p_5_1_2 1)))
 (let (($x1246 (= p_5_7_3 1)))
 (let (($x1248 (= p_5_4_6 1)))
 (let (($x1245 (= p_5_5_8 1)))
 ((_ pbeq 1 1 1 1 1) $x1245 $x1248 $x1246 $x1249))))))
(assert
 (let (($x1333 (= p_5_1_2 2)))
 (let (($x1330 (= p_5_7_3 2)))
 (let (($x1332 (= p_5_4_6 2)))
 (let (($x1329 (= p_5_5_8 2)))
 ((_ pbeq 1 1 1 1 1) $x1329 $x1332 $x1330 $x1333))))))
(assert
 (let (($x1624 (= p_5_1_2 3)))
 (let (($x748 (= p_5_7_3 3)))
 (let (($x1625 (= p_5_4_6 3)))
 (let (($x1626 (= p_5_5_8 3)))
 ((_ pbeq 1 1 1 1 1) $x1626 $x1625 $x748 $x1624))))))
(assert
 (let (($x1619 (= p_5_1_2 4)))
 (let (($x1620 (= p_5_7_3 4)))
 (let (($x1621 (= p_5_4_6 4)))
 (let (($x1622 (= p_5_5_8 4)))
 ((_ pbeq 1 1 1 1 1) $x1622 $x1621 $x1620 $x1619))))))
(assert
 (let (($x1615 (= p_6_2_3 1)))
 (let (($x1616 (= p_6_1_4 1)))
 (let (($x1617 (= p_6_5_7 1)))
 (let (($x1618 (= p_6_6_8 1)))
 ((_ pbeq 1 1 1 1 1) $x1618 $x1617 $x1616 $x1615))))))
(assert
 (let (($x1225 (= p_6_2_3 2)))
 (let (($x1223 (= p_6_1_4 2)))
 (let (($x1157 (= p_6_5_7 2)))
 (let (($x1156 (= p_6_6_8 2)))
 ((_ pbeq 1 1 1 1 1) $x1156 $x1157 $x1223 $x1225))))))
(assert
 (let (($x1614 (= p_6_2_3 3)))
 (let (($x1308 (= p_6_1_4 3)))
 (let (($x1307 (= p_6_5_7 3)))
 (let (($x1305 (= p_6_6_8 3)))
 ((_ pbeq 1 1 1 1 1) $x1305 $x1307 $x1308 $x1614))))))
(assert
 (let (($x1612 (= p_6_2_3 4)))
 (let (($x1613 (= p_6_1_4 4)))
 (let (($x1088 (= p_6_5_7 4)))
 (let (($x1087 (= p_6_6_8 4)))
 ((_ pbeq 1 1 1 1 1) $x1087 $x1088 $x1613 $x1612))))))
(assert
 (let (($x1608 (= p_7_3_4 1)))
 (let (($x1609 (= p_7_2_5 1)))
 (let (($x1610 (= p_7_6_1 1)))
 (let (($x719 (= p_7_7_8 1)))
 ((_ pbeq 1 1 1 1 1) $x719 $x1610 $x1609 $x1608))))))
(assert
 (let (($x1604 (= p_7_3_4 2)))
 (let (($x689 (= p_7_2_5 2)))
 (let (($x1605 (= p_7_6_1 2)))
 (let (($x1606 (= p_7_7_8 2)))
 ((_ pbeq 1 1 1 1 1) $x1606 $x1605 $x689 $x1604))))))
(assert
 (let (($x1132 (= p_7_3_4 3)))
 (let (($x1134 (= p_7_2_5 3)))
 (let (($x1601 (= p_7_6_1 3)))
 (let (($x1602 (= p_7_7_8 3)))
 ((_ pbeq 1 1 1 1 1) $x1602 $x1601 $x1134 $x1132))))))
(assert
 (let (($x1278 (= p_7_3_4 4)))
 (let (($x1204 (= p_7_2_5 4)))
 (let (($x1201 (= p_7_6_1 4)))
 (let (($x1203 (= p_7_7_8 4)))
 ((_ pbeq 1 1 1 1 1) $x1203 $x1201 $x1204 $x1278))))))
(assert
 (let (($x1610 (= p_7_6_1 1)))
 (let (($x1616 (= p_6_1_4 1)))
 (let (($x1249 (= p_5_1_2 1)))
 (let (($x1636 (= p_4_7_1 1)))
 (let (($x1214 (= p_3_5_1 1)))
 (let (($x32 (= p_2_1_3 1)))
 (let (($x171 (= p_1_8_1 1)))
 ((_ at-most 2) $x171 $x32 $x1214 $x1636 $x1249 $x1616 $x1610)))))))))
(assert
 (let (($x1605 (= p_7_6_1 2)))
 (let (($x1223 (= p_6_1_4 2)))
 (let (($x1333 (= p_5_1_2 2)))
 (let (($x1631 (= p_4_7_1 2)))
 (let (($x1648 (= p_3_5_1 2)))
 (let (($x29 (= p_2_1_3 2)))
 (let (($x30 (= p_1_8_1 2)))
 ((_ at-most 2) $x30 $x29 $x1648 $x1631 $x1333 $x1223 $x1605)))))))))
(assert
 (let (($x1601 (= p_7_6_1 3)))
 (let (($x1308 (= p_6_1_4 3)))
 (let (($x1624 (= p_5_1_2 3)))
 (let (($x1110 (= p_4_7_1 3)))
 (let (($x1646 (= p_3_5_1 3)))
 (let (($x27 (= p_2_1_3 3)))
 (let (($x42 (= p_1_8_1 3)))
 ((_ at-most 2) $x42 $x27 $x1646 $x1110 $x1624 $x1308 $x1601)))))))))
(assert
 (let (($x1201 (= p_7_6_1 4)))
 (let (($x1613 (= p_6_1_4 4)))
 (let (($x1619 (= p_5_1_2 4)))
 (let (($x1177 (= p_4_7_1 4)))
 (let (($x1641 (= p_3_5_1 4)))
 (let (($x7 (= p_2_1_3 4)))
 (let (($x176 (= p_1_8_1 4)))
 ((_ at-most 2) $x176 $x7 $x1641 $x1177 $x1619 $x1613 $x1201)))))))))
(assert
 (let (($x1609 (= p_7_2_5 1)))
 (let (($x1615 (= p_6_2_3 1)))
 (let (($x1249 (= p_5_1_2 1)))
 (let (($x1637 (= p_4_6_2 1)))
 (let (($x1216 (= p_3_2_4 1)))
 (let (($x47 (= p_2_8_2 1)))
 (let (($x14 (= p_1_7_2 1)))
 ((_ at-most 2) $x14 $x47 $x1216 $x1637 $x1249 $x1615 $x1609)))))))))
(assert
 (let (($x689 (= p_7_2_5 2)))
 (let (($x1225 (= p_6_2_3 2)))
 (let (($x1333 (= p_5_1_2 2)))
 (let (($x1632 (= p_4_6_2 2)))
 (let (($x1286 (= p_3_2_4 2)))
 (let (($x8 (= p_2_8_2 2)))
 (let (($x33 (= p_1_7_2 2)))
 ((_ at-most 2) $x33 $x8 $x1286 $x1632 $x1333 $x1225 $x689)))))))))
(assert
 (let (($x1134 (= p_7_2_5 3)))
 (let (($x1614 (= p_6_2_3 3)))
 (let (($x1624 (= p_5_1_2 3)))
 (let (($x1107 (= p_4_6_2 3)))
 (let (($x1647 (= p_3_2_4 3)))
 (let (($x31 (= p_2_8_2 3)))
 (let (($x139 (= p_1_7_2 3)))
 ((_ at-most 2) $x139 $x31 $x1647 $x1107 $x1624 $x1614 $x1134)))))))))
(assert
 (let (($x1204 (= p_7_2_5 4)))
 (let (($x1612 (= p_6_2_3 4)))
 (let (($x1619 (= p_5_1_2 4)))
 (let (($x1179 (= p_4_6_2 4)))
 (let (($x1642 (= p_3_2_4 4)))
 (let (($x34 (= p_2_8_2 4)))
 (let (($x38 (= p_1_7_2 4)))
 ((_ at-most 2) $x38 $x34 $x1642 $x1179 $x1619 $x1612 $x1204)))))))))
(assert
 (let (($x1608 (= p_7_3_4 1)))
 (let (($x1615 (= p_6_2_3 1)))
 (let (($x1246 (= p_5_7_3 1)))
 (let (($x1638 (= p_4_3_5 1)))
 (let (($x1148 (= p_3_8_3 1)))
 (let (($x32 (= p_2_1_3 1)))
 (let (($x183 (= p_1_3_6 1)))
 ((_ at-most 2) $x183 $x32 $x1148 $x1638 $x1246 $x1615 $x1608)))))))))
(assert
 (let (($x1604 (= p_7_3_4 2)))
 (let (($x1225 (= p_6_2_3 2)))
 (let (($x1330 (= p_5_7_3 2)))
 (let (($x1633 (= p_4_3_5 2)))
 (let (($x1283 (= p_3_8_3 2)))
 (let (($x29 (= p_2_1_3 2)))
 (let (($x36 (= p_1_3_6 2)))
 ((_ at-most 2) $x36 $x29 $x1283 $x1633 $x1330 $x1225 $x1604)))))))))
(assert
 (let (($x1132 (= p_7_3_4 3)))
 (let (($x1614 (= p_6_2_3 3)))
 (let (($x748 (= p_5_7_3 3)))
 (let (($x747 (= p_4_3_5 3)))
 (let (($x1355 (= p_3_8_3 3)))
 (let (($x27 (= p_2_1_3 3)))
 (let (($x43 (= p_1_3_6 3)))
 ((_ at-most 2) $x43 $x27 $x1355 $x747 $x748 $x1614 $x1132)))))))))
(assert
 (let (($x1278 (= p_7_3_4 4)))
 (let (($x1612 (= p_6_2_3 4)))
 (let (($x1620 (= p_5_7_3 4)))
 (let (($x1176 (= p_4_3_5 4)))
 (let (($x1643 (= p_3_8_3 4)))
 (let (($x7 (= p_2_1_3 4)))
 (let (($x46 (= p_1_3_6 4)))
 ((_ at-most 2) $x46 $x7 $x1643 $x1176 $x1620 $x1612 $x1278)))))))))
(assert
 (let (($x1608 (= p_7_3_4 1)))
 (let (($x1616 (= p_6_1_4 1)))
 (let (($x1248 (= p_5_4_6 1)))
 (let (($x777 (= p_4_8_4 1)))
 (let (($x1216 (= p_3_2_4 1)))
 (let (($x25 (= p_2_4_7 1)))
 (let (($x17 (= p_1_4_5 1)))
 ((_ at-most 2) $x17 $x25 $x1216 $x777 $x1248 $x1616 $x1608)))))))))
(assert
 (let (($x1604 (= p_7_3_4 2)))
 (let (($x1223 (= p_6_1_4 2)))
 (let (($x1332 (= p_5_4_6 2)))
 (let (($x1634 (= p_4_8_4 2)))
 (let (($x1286 (= p_3_2_4 2)))
 (let (($x6 (= p_2_4_7 2)))
 (let (($x180 (= p_1_4_5 2)))
 ((_ at-most 2) $x180 $x6 $x1286 $x1634 $x1332 $x1223 $x1604)))))))))
(assert
 (let (($x1132 (= p_7_3_4 3)))
 (let (($x1308 (= p_6_1_4 3)))
 (let (($x1625 (= p_5_4_6 3)))
 (let (($x1629 (= p_4_8_4 3)))
 (let (($x1647 (= p_3_2_4 3)))
 (let (($x50 (= p_2_4_7 3)))
 (let (($x44 (= p_1_4_5 3)))
 ((_ at-most 2) $x44 $x50 $x1647 $x1629 $x1625 $x1308 $x1132)))))))))
(assert
 (let (($x1278 (= p_7_3_4 4)))
 (let (($x1613 (= p_6_1_4 4)))
 (let (($x1621 (= p_5_4_6 4)))
 (let (($x1111 (= p_4_8_4 4)))
 (let (($x1642 (= p_3_2_4 4)))
 (let (($x5 (= p_2_4_7 4)))
 (let (($x41 (= p_1_4_5 4)))
 ((_ at-most 2) $x41 $x5 $x1642 $x1111 $x1621 $x1613 $x1278)))))))))
(assert
 (let (($x1609 (= p_7_2_5 1)))
 (let (($x1617 (= p_6_5_7 1)))
 (let (($x1245 (= p_5_5_8 1)))
 (let (($x1638 (= p_4_3_5 1)))
 (let (($x1214 (= p_3_5_1 1)))
 (let (($x48 (= p_2_5_6 1)))
 (let (($x17 (= p_1_4_5 1)))
 ((_ at-most 2) $x17 $x48 $x1214 $x1638 $x1245 $x1617 $x1609)))))))))
(assert
 (let (($x689 (= p_7_2_5 2)))
 (let (($x1157 (= p_6_5_7 2)))
 (let (($x1329 (= p_5_5_8 2)))
 (let (($x1633 (= p_4_3_5 2)))
 (let (($x1648 (= p_3_5_1 2)))
 (let (($x49 (= p_2_5_6 2)))
 (let (($x180 (= p_1_4_5 2)))
 ((_ at-most 2) $x180 $x49 $x1648 $x1633 $x1329 $x1157 $x689)))))))))
(assert
 (let (($x1134 (= p_7_2_5 3)))
 (let (($x1307 (= p_6_5_7 3)))
 (let (($x1626 (= p_5_5_8 3)))
 (let (($x747 (= p_4_3_5 3)))
 (let (($x1646 (= p_3_5_1 3)))
 (let (($x40 (= p_2_5_6 3)))
 (let (($x44 (= p_1_4_5 3)))
 ((_ at-most 2) $x44 $x40 $x1646 $x747 $x1626 $x1307 $x1134)))))))))
(assert
 (let (($x1204 (= p_7_2_5 4)))
 (let (($x1088 (= p_6_5_7 4)))
 (let (($x1622 (= p_5_5_8 4)))
 (let (($x1176 (= p_4_3_5 4)))
 (let (($x1641 (= p_3_5_1 4)))
 (let (($x1147 (= p_2_5_6 4)))
 (let (($x41 (= p_1_4_5 4)))
 ((_ at-most 2) $x41 $x1147 $x1641 $x1176 $x1622 $x1088 $x1204)))))))))
(assert
 (let (($x1610 (= p_7_6_1 1)))
 (let (($x1618 (= p_6_6_8 1)))
 (let (($x1248 (= p_5_4_6 1)))
 (let (($x1637 (= p_4_6_2 1)))
 (let (($x1217 (= p_3_6_7 1)))
 (let (($x48 (= p_2_5_6 1)))
 (let (($x183 (= p_1_3_6 1)))
 ((_ at-most 2) $x183 $x48 $x1217 $x1637 $x1248 $x1618 $x1610)))))))))
(assert
 (let (($x1605 (= p_7_6_1 2)))
 (let (($x1156 (= p_6_6_8 2)))
 (let (($x1332 (= p_5_4_6 2)))
 (let (($x1632 (= p_4_6_2 2)))
 (let (($x1354 (= p_3_6_7 2)))
 (let (($x49 (= p_2_5_6 2)))
 (let (($x36 (= p_1_3_6 2)))
 ((_ at-most 2) $x36 $x49 $x1354 $x1632 $x1332 $x1156 $x1605)))))))))
(assert
 (let (($x1601 (= p_7_6_1 3)))
 (let (($x1305 (= p_6_6_8 3)))
 (let (($x1625 (= p_5_4_6 3)))
 (let (($x1107 (= p_4_6_2 3)))
 (let (($x1645 (= p_3_6_7 3)))
 (let (($x40 (= p_2_5_6 3)))
 (let (($x43 (= p_1_3_6 3)))
 ((_ at-most 2) $x43 $x40 $x1645 $x1107 $x1625 $x1305 $x1601)))))))))
(assert
 (let (($x1201 (= p_7_6_1 4)))
 (let (($x1087 (= p_6_6_8 4)))
 (let (($x1621 (= p_5_4_6 4)))
 (let (($x1179 (= p_4_6_2 4)))
 (let (($x1640 (= p_3_6_7 4)))
 (let (($x1147 (= p_2_5_6 4)))
 (let (($x46 (= p_1_3_6 4)))
 ((_ at-most 2) $x46 $x1147 $x1640 $x1179 $x1621 $x1087 $x1201)))))))))
(assert
 (let (($x719 (= p_7_7_8 1)))
 (let (($x1617 (= p_6_5_7 1)))
 (let (($x1246 (= p_5_7_3 1)))
 (let (($x1636 (= p_4_7_1 1)))
 (let (($x1217 (= p_3_6_7 1)))
 (let (($x25 (= p_2_4_7 1)))
 (let (($x14 (= p_1_7_2 1)))
 ((_ at-most 2) $x14 $x25 $x1217 $x1636 $x1246 $x1617 $x719)))))))))
(assert
 (let (($x1606 (= p_7_7_8 2)))
 (let (($x1157 (= p_6_5_7 2)))
 (let (($x1330 (= p_5_7_3 2)))
 (let (($x1631 (= p_4_7_1 2)))
 (let (($x1354 (= p_3_6_7 2)))
 (let (($x6 (= p_2_4_7 2)))
 (let (($x33 (= p_1_7_2 2)))
 ((_ at-most 2) $x33 $x6 $x1354 $x1631 $x1330 $x1157 $x1606)))))))))
(assert
 (let (($x1602 (= p_7_7_8 3)))
 (let (($x1307 (= p_6_5_7 3)))
 (let (($x748 (= p_5_7_3 3)))
 (let (($x1110 (= p_4_7_1 3)))
 (let (($x1645 (= p_3_6_7 3)))
 (let (($x50 (= p_2_4_7 3)))
 (let (($x139 (= p_1_7_2 3)))
 ((_ at-most 2) $x139 $x50 $x1645 $x1110 $x748 $x1307 $x1602)))))))))
(assert
 (let (($x1203 (= p_7_7_8 4)))
 (let (($x1088 (= p_6_5_7 4)))
 (let (($x1620 (= p_5_7_3 4)))
 (let (($x1177 (= p_4_7_1 4)))
 (let (($x1640 (= p_3_6_7 4)))
 (let (($x5 (= p_2_4_7 4)))
 (let (($x38 (= p_1_7_2 4)))
 ((_ at-most 2) $x38 $x5 $x1640 $x1177 $x1620 $x1088 $x1203)))))))))
(assert
 (let (($x719 (= p_7_7_8 1)))
 (let (($x1618 (= p_6_6_8 1)))
 (let (($x1245 (= p_5_5_8 1)))
 (let (($x777 (= p_4_8_4 1)))
 (let (($x1148 (= p_3_8_3 1)))
 (let (($x47 (= p_2_8_2 1)))
 (let (($x171 (= p_1_8_1 1)))
 ((_ at-most 2) $x171 $x47 $x1148 $x777 $x1245 $x1618 $x719)))))))))
(assert
 (let (($x1606 (= p_7_7_8 2)))
 (let (($x1156 (= p_6_6_8 2)))
 (let (($x1329 (= p_5_5_8 2)))
 (let (($x1634 (= p_4_8_4 2)))
 (let (($x1283 (= p_3_8_3 2)))
 (let (($x8 (= p_2_8_2 2)))
 (let (($x30 (= p_1_8_1 2)))
 ((_ at-most 2) $x30 $x8 $x1283 $x1634 $x1329 $x1156 $x1606)))))))))
(assert
 (let (($x1602 (= p_7_7_8 3)))
 (let (($x1305 (= p_6_6_8 3)))
 (let (($x1626 (= p_5_5_8 3)))
 (let (($x1629 (= p_4_8_4 3)))
 (let (($x1355 (= p_3_8_3 3)))
 (let (($x31 (= p_2_8_2 3)))
 (let (($x42 (= p_1_8_1 3)))
 ((_ at-most 2) $x42 $x31 $x1355 $x1629 $x1626 $x1305 $x1602)))))))))
(assert
 (let (($x1203 (= p_7_7_8 4)))
(let (($x1087 (= p_6_6_8 4)))
(let (($x1622 (= p_5_5_8 4)))
(let (($x1111 (= p_4_8_4 4)))
(let (($x1643 (= p_3_8_3 4)))
(let (($x34 (= p_2_8_2 4)))
(let (($x176 (= p_1_8_1 4)))
((_ at-most 2) $x176 $x34 $x1643 $x1111 $x1622 $x1087 $x1203)))))))))
(check-sat)
